(set-option :produce-models true)
(set-logic QF_LIRA)
(declare-fun comprasVeg_0_0 () Int)
(declare-fun refinadoVeg_0_0 () Int)
(declare-fun comprasVeg_0_1 () Int)
(declare-fun refinadoVeg_0_1 () Int)
(declare-fun comprasVeg_1_0 () Int)
(declare-fun refinadoVeg_1_0 () Int)
(declare-fun comprasVeg_1_1 () Int)
(declare-fun refinadoVeg_1_1 () Int)
(declare-fun comprasVeg_2_0 () Int)
(declare-fun refinadoVeg_2_0 () Int)
(declare-fun comprasVeg_2_1 () Int)
(declare-fun refinadoVeg_2_1 () Int)
(declare-fun comprasVeg_3_0 () Int)
(declare-fun refinadoVeg_3_0 () Int)
(declare-fun comprasVeg_3_1 () Int)
(declare-fun refinadoVeg_3_1 () Int)
(declare-fun comprasVeg_4_0 () Int)
(declare-fun refinadoVeg_4_0 () Int)
(declare-fun comprasVeg_4_1 () Int)
(declare-fun refinadoVeg_4_1 () Int)
(declare-fun comprasVeg_5_0 () Int)
(declare-fun refinadoVeg_5_0 () Int)
(declare-fun comprasVeg_5_1 () Int)
(declare-fun refinadoVeg_5_1 () Int)
(declare-fun comprasVeg_6_0 () Int)
(declare-fun refinadoVeg_6_0 () Int)
(declare-fun comprasVeg_6_1 () Int)
(declare-fun refinadoVeg_6_1 () Int)
(declare-fun comprasVeg_7_0 () Int)
(declare-fun refinadoVeg_7_0 () Int)
(declare-fun comprasVeg_7_1 () Int)
(declare-fun refinadoVeg_7_1 () Int)
(declare-fun comprasVeg_8_0 () Int)
(declare-fun refinadoVeg_8_0 () Int)
(declare-fun comprasVeg_8_1 () Int)
(declare-fun refinadoVeg_8_1 () Int)
(declare-fun comprasVeg_9_0 () Int)
(declare-fun refinadoVeg_9_0 () Int)
(declare-fun comprasVeg_9_1 () Int)
(declare-fun refinadoVeg_9_1 () Int)
(declare-fun comprasVeg_10_0 () Int)
(declare-fun refinadoVeg_10_0 () Int)
(declare-fun comprasVeg_10_1 () Int)
(declare-fun refinadoVeg_10_1 () Int)
(declare-fun comprasVeg_11_0 () Int)
(declare-fun refinadoVeg_11_0 () Int)
(declare-fun comprasVeg_11_1 () Int)
(declare-fun refinadoVeg_11_1 () Int)
(declare-fun comprasNVeg_0_0 () Int)
(declare-fun refinadoNVeg_0_0 () Int)
(declare-fun comprasNVeg_0_1 () Int)
(declare-fun refinadoNVeg_0_1 () Int)
(declare-fun comprasNVeg_0_2 () Int)
(declare-fun refinadoNVeg_0_2 () Int)
(declare-fun comprasNVeg_1_0 () Int)
(declare-fun refinadoNVeg_1_0 () Int)
(declare-fun comprasNVeg_1_1 () Int)
(declare-fun refinadoNVeg_1_1 () Int)
(declare-fun comprasNVeg_1_2 () Int)
(declare-fun refinadoNVeg_1_2 () Int)
(declare-fun comprasNVeg_2_0 () Int)
(declare-fun refinadoNVeg_2_0 () Int)
(declare-fun comprasNVeg_2_1 () Int)
(declare-fun refinadoNVeg_2_1 () Int)
(declare-fun comprasNVeg_2_2 () Int)
(declare-fun refinadoNVeg_2_2 () Int)
(declare-fun comprasNVeg_3_0 () Int)
(declare-fun refinadoNVeg_3_0 () Int)
(declare-fun comprasNVeg_3_1 () Int)
(declare-fun refinadoNVeg_3_1 () Int)
(declare-fun comprasNVeg_3_2 () Int)
(declare-fun refinadoNVeg_3_2 () Int)
(declare-fun comprasNVeg_4_0 () Int)
(declare-fun refinadoNVeg_4_0 () Int)
(declare-fun comprasNVeg_4_1 () Int)
(declare-fun refinadoNVeg_4_1 () Int)
(declare-fun comprasNVeg_4_2 () Int)
(declare-fun refinadoNVeg_4_2 () Int)
(declare-fun comprasNVeg_5_0 () Int)
(declare-fun refinadoNVeg_5_0 () Int)
(declare-fun comprasNVeg_5_1 () Int)
(declare-fun refinadoNVeg_5_1 () Int)
(declare-fun comprasNVeg_5_2 () Int)
(declare-fun refinadoNVeg_5_2 () Int)
(declare-fun comprasNVeg_6_0 () Int)
(declare-fun refinadoNVeg_6_0 () Int)
(declare-fun comprasNVeg_6_1 () Int)
(declare-fun refinadoNVeg_6_1 () Int)
(declare-fun comprasNVeg_6_2 () Int)
(declare-fun refinadoNVeg_6_2 () Int)
(declare-fun comprasNVeg_7_0 () Int)
(declare-fun refinadoNVeg_7_0 () Int)
(declare-fun comprasNVeg_7_1 () Int)
(declare-fun refinadoNVeg_7_1 () Int)
(declare-fun comprasNVeg_7_2 () Int)
(declare-fun refinadoNVeg_7_2 () Int)
(declare-fun comprasNVeg_8_0 () Int)
(declare-fun refinadoNVeg_8_0 () Int)
(declare-fun comprasNVeg_8_1 () Int)
(declare-fun refinadoNVeg_8_1 () Int)
(declare-fun comprasNVeg_8_2 () Int)
(declare-fun refinadoNVeg_8_2 () Int)
(declare-fun comprasNVeg_9_0 () Int)
(declare-fun refinadoNVeg_9_0 () Int)
(declare-fun comprasNVeg_9_1 () Int)
(declare-fun refinadoNVeg_9_1 () Int)
(declare-fun comprasNVeg_9_2 () Int)
(declare-fun refinadoNVeg_9_2 () Int)
(declare-fun comprasNVeg_10_0 () Int)
(declare-fun refinadoNVeg_10_0 () Int)
(declare-fun comprasNVeg_10_1 () Int)
(declare-fun refinadoNVeg_10_1 () Int)
(declare-fun comprasNVeg_10_2 () Int)
(declare-fun refinadoNVeg_10_2 () Int)
(declare-fun comprasNVeg_11_0 () Int)
(declare-fun refinadoNVeg_11_0 () Int)
(declare-fun comprasNVeg_11_1 () Int)
(declare-fun refinadoNVeg_11_1 () Int)
(declare-fun comprasNVeg_11_2 () Int)
(declare-fun refinadoNVeg_11_2 () Int)
(declare-fun almVeg_-1_0 () Int)
(declare-fun almVeg_-1_1 () Int)
(declare-fun almNVeg_-1_0 () Int)
(declare-fun almNVeg_-1_1 () Int)
(declare-fun almNVeg_-1_2 () Int)
(declare-fun almVeg_0_0 () Int)
(declare-fun almVeg_0_1 () Int)
(declare-fun almNVeg_0_0 () Int)
(declare-fun almNVeg_0_1 () Int)
(declare-fun almNVeg_0_2 () Int)
(declare-fun almVeg_1_0 () Int)
(declare-fun almVeg_1_1 () Int)
(declare-fun almNVeg_1_0 () Int)
(declare-fun almNVeg_1_1 () Int)
(declare-fun almNVeg_1_2 () Int)
(declare-fun almVeg_2_0 () Int)
(declare-fun almVeg_2_1 () Int)
(declare-fun almNVeg_2_0 () Int)
(declare-fun almNVeg_2_1 () Int)
(declare-fun almNVeg_2_2 () Int)
(declare-fun almVeg_3_0 () Int)
(declare-fun almVeg_3_1 () Int)
(declare-fun almNVeg_3_0 () Int)
(declare-fun almNVeg_3_1 () Int)
(declare-fun almNVeg_3_2 () Int)
(declare-fun almVeg_4_0 () Int)
(declare-fun almVeg_4_1 () Int)
(declare-fun almNVeg_4_0 () Int)
(declare-fun almNVeg_4_1 () Int)
(declare-fun almNVeg_4_2 () Int)
(declare-fun almVeg_5_0 () Int)
(declare-fun almVeg_5_1 () Int)
(declare-fun almNVeg_5_0 () Int)
(declare-fun almNVeg_5_1 () Int)
(declare-fun almNVeg_5_2 () Int)
(declare-fun almVeg_6_0 () Int)
(declare-fun almVeg_6_1 () Int)
(declare-fun almNVeg_6_0 () Int)
(declare-fun almNVeg_6_1 () Int)
(declare-fun almNVeg_6_2 () Int)
(declare-fun almVeg_7_0 () Int)
(declare-fun almVeg_7_1 () Int)
(declare-fun almNVeg_7_0 () Int)
(declare-fun almNVeg_7_1 () Int)
(declare-fun almNVeg_7_2 () Int)
(declare-fun almVeg_8_0 () Int)
(declare-fun almVeg_8_1 () Int)
(declare-fun almNVeg_8_0 () Int)
(declare-fun almNVeg_8_1 () Int)
(declare-fun almNVeg_8_2 () Int)
(declare-fun almVeg_9_0 () Int)
(declare-fun almVeg_9_1 () Int)
(declare-fun almNVeg_9_0 () Int)
(declare-fun almNVeg_9_1 () Int)
(declare-fun almNVeg_9_2 () Int)
(declare-fun almVeg_10_0 () Int)
(declare-fun almVeg_10_1 () Int)
(declare-fun almNVeg_10_0 () Int)
(declare-fun almNVeg_10_1 () Int)
(declare-fun almNVeg_10_2 () Int)
(declare-fun almVeg_11_0 () Int)
(declare-fun almVeg_11_1 () Int)
(declare-fun almNVeg_11_0 () Int)
(declare-fun almNVeg_11_1 () Int)
(declare-fun almNVeg_11_2 () Int)
(declare-fun ben_0 () Int)
(declare-fun ben_1 () Int)
(declare-fun ben_2 () Int)
(declare-fun ben_3 () Int)
(declare-fun ben_4 () Int)
(declare-fun ben_5 () Int)
(declare-fun ben_6 () Int)
(declare-fun ben_7 () Int)
(declare-fun ben_8 () Int)
(declare-fun ben_9 () Int)
(declare-fun ben_10 () Int)
(declare-fun ben_11 () Int)
(assert (>= refinadoVeg_0_0 0 ) )
(assert (>= comprasVeg_0_0 0 ) )
(assert (>= almVeg_0_0 0 ) )
(assert (>= refinadoVeg_0_1 0 ) )
(assert (>= comprasVeg_0_1 0 ) )
(assert (>= almVeg_0_1 0 ) )
(assert (>= refinadoNVeg_0_0 0 ) )
(assert (>= comprasNVeg_0_0 0 ) )
(assert (>= almNVeg_0_0 0 ) )
(assert (>= refinadoNVeg_0_1 0 ) )
(assert (>= comprasNVeg_0_1 0 ) )
(assert (>= almNVeg_0_1 0 ) )
(assert (>= refinadoNVeg_0_2 0 ) )
(assert (>= comprasNVeg_0_2 0 ) )
(assert (>= almNVeg_0_2 0 ) )
(assert (>= refinadoVeg_1_0 0 ) )
(assert (>= comprasVeg_1_0 0 ) )
(assert (>= almVeg_1_0 0 ) )
(assert (>= refinadoVeg_1_1 0 ) )
(assert (>= comprasVeg_1_1 0 ) )
(assert (>= almVeg_1_1 0 ) )
(assert (>= refinadoNVeg_1_0 0 ) )
(assert (>= comprasNVeg_1_0 0 ) )
(assert (>= almNVeg_1_0 0 ) )
(assert (>= refinadoNVeg_1_1 0 ) )
(assert (>= comprasNVeg_1_1 0 ) )
(assert (>= almNVeg_1_1 0 ) )
(assert (>= refinadoNVeg_1_2 0 ) )
(assert (>= comprasNVeg_1_2 0 ) )
(assert (>= almNVeg_1_2 0 ) )
(assert (>= refinadoVeg_2_0 0 ) )
(assert (>= comprasVeg_2_0 0 ) )
(assert (>= almVeg_2_0 0 ) )
(assert (>= refinadoVeg_2_1 0 ) )
(assert (>= comprasVeg_2_1 0 ) )
(assert (>= almVeg_2_1 0 ) )
(assert (>= refinadoNVeg_2_0 0 ) )
(assert (>= comprasNVeg_2_0 0 ) )
(assert (>= almNVeg_2_0 0 ) )
(assert (>= refinadoNVeg_2_1 0 ) )
(assert (>= comprasNVeg_2_1 0 ) )
(assert (>= almNVeg_2_1 0 ) )
(assert (>= refinadoNVeg_2_2 0 ) )
(assert (>= comprasNVeg_2_2 0 ) )
(assert (>= almNVeg_2_2 0 ) )
(assert (>= refinadoVeg_3_0 0 ) )
(assert (>= comprasVeg_3_0 0 ) )
(assert (>= almVeg_3_0 0 ) )
(assert (>= refinadoVeg_3_1 0 ) )
(assert (>= comprasVeg_3_1 0 ) )
(assert (>= almVeg_3_1 0 ) )
(assert (>= refinadoNVeg_3_0 0 ) )
(assert (>= comprasNVeg_3_0 0 ) )
(assert (>= almNVeg_3_0 0 ) )
(assert (>= refinadoNVeg_3_1 0 ) )
(assert (>= comprasNVeg_3_1 0 ) )
(assert (>= almNVeg_3_1 0 ) )
(assert (>= refinadoNVeg_3_2 0 ) )
(assert (>= comprasNVeg_3_2 0 ) )
(assert (>= almNVeg_3_2 0 ) )
(assert (>= refinadoVeg_4_0 0 ) )
(assert (>= comprasVeg_4_0 0 ) )
(assert (>= almVeg_4_0 0 ) )
(assert (>= refinadoVeg_4_1 0 ) )
(assert (>= comprasVeg_4_1 0 ) )
(assert (>= almVeg_4_1 0 ) )
(assert (>= refinadoNVeg_4_0 0 ) )
(assert (>= comprasNVeg_4_0 0 ) )
(assert (>= almNVeg_4_0 0 ) )
(assert (>= refinadoNVeg_4_1 0 ) )
(assert (>= comprasNVeg_4_1 0 ) )
(assert (>= almNVeg_4_1 0 ) )
(assert (>= refinadoNVeg_4_2 0 ) )
(assert (>= comprasNVeg_4_2 0 ) )
(assert (>= almNVeg_4_2 0 ) )
(assert (>= refinadoVeg_5_0 0 ) )
(assert (>= comprasVeg_5_0 0 ) )
(assert (>= almVeg_5_0 0 ) )
(assert (>= refinadoVeg_5_1 0 ) )
(assert (>= comprasVeg_5_1 0 ) )
(assert (>= almVeg_5_1 0 ) )
(assert (>= refinadoNVeg_5_0 0 ) )
(assert (>= comprasNVeg_5_0 0 ) )
(assert (>= almNVeg_5_0 0 ) )
(assert (>= refinadoNVeg_5_1 0 ) )
(assert (>= comprasNVeg_5_1 0 ) )
(assert (>= almNVeg_5_1 0 ) )
(assert (>= refinadoNVeg_5_2 0 ) )
(assert (>= comprasNVeg_5_2 0 ) )
(assert (>= almNVeg_5_2 0 ) )
(assert (>= refinadoVeg_6_0 0 ) )
(assert (>= comprasVeg_6_0 0 ) )
(assert (>= almVeg_6_0 0 ) )
(assert (>= refinadoVeg_6_1 0 ) )
(assert (>= comprasVeg_6_1 0 ) )
(assert (>= almVeg_6_1 0 ) )
(assert (>= refinadoNVeg_6_0 0 ) )
(assert (>= comprasNVeg_6_0 0 ) )
(assert (>= almNVeg_6_0 0 ) )
(assert (>= refinadoNVeg_6_1 0 ) )
(assert (>= comprasNVeg_6_1 0 ) )
(assert (>= almNVeg_6_1 0 ) )
(assert (>= refinadoNVeg_6_2 0 ) )
(assert (>= comprasNVeg_6_2 0 ) )
(assert (>= almNVeg_6_2 0 ) )
(assert (>= refinadoVeg_7_0 0 ) )
(assert (>= comprasVeg_7_0 0 ) )
(assert (>= almVeg_7_0 0 ) )
(assert (>= refinadoVeg_7_1 0 ) )
(assert (>= comprasVeg_7_1 0 ) )
(assert (>= almVeg_7_1 0 ) )
(assert (>= refinadoNVeg_7_0 0 ) )
(assert (>= comprasNVeg_7_0 0 ) )
(assert (>= almNVeg_7_0 0 ) )
(assert (>= refinadoNVeg_7_1 0 ) )
(assert (>= comprasNVeg_7_1 0 ) )
(assert (>= almNVeg_7_1 0 ) )
(assert (>= refinadoNVeg_7_2 0 ) )
(assert (>= comprasNVeg_7_2 0 ) )
(assert (>= almNVeg_7_2 0 ) )
(assert (>= refinadoVeg_8_0 0 ) )
(assert (>= comprasVeg_8_0 0 ) )
(assert (>= almVeg_8_0 0 ) )
(assert (>= refinadoVeg_8_1 0 ) )
(assert (>= comprasVeg_8_1 0 ) )
(assert (>= almVeg_8_1 0 ) )
(assert (>= refinadoNVeg_8_0 0 ) )
(assert (>= comprasNVeg_8_0 0 ) )
(assert (>= almNVeg_8_0 0 ) )
(assert (>= refinadoNVeg_8_1 0 ) )
(assert (>= comprasNVeg_8_1 0 ) )
(assert (>= almNVeg_8_1 0 ) )
(assert (>= refinadoNVeg_8_2 0 ) )
(assert (>= comprasNVeg_8_2 0 ) )
(assert (>= almNVeg_8_2 0 ) )
(assert (>= refinadoVeg_9_0 0 ) )
(assert (>= comprasVeg_9_0 0 ) )
(assert (>= almVeg_9_0 0 ) )
(assert (>= refinadoVeg_9_1 0 ) )
(assert (>= comprasVeg_9_1 0 ) )
(assert (>= almVeg_9_1 0 ) )
(assert (>= refinadoNVeg_9_0 0 ) )
(assert (>= comprasNVeg_9_0 0 ) )
(assert (>= almNVeg_9_0 0 ) )
(assert (>= refinadoNVeg_9_1 0 ) )
(assert (>= comprasNVeg_9_1 0 ) )
(assert (>= almNVeg_9_1 0 ) )
(assert (>= refinadoNVeg_9_2 0 ) )
(assert (>= comprasNVeg_9_2 0 ) )
(assert (>= almNVeg_9_2 0 ) )
(assert (>= refinadoVeg_10_0 0 ) )
(assert (>= comprasVeg_10_0 0 ) )
(assert (>= almVeg_10_0 0 ) )
(assert (>= refinadoVeg_10_1 0 ) )
(assert (>= comprasVeg_10_1 0 ) )
(assert (>= almVeg_10_1 0 ) )
(assert (>= refinadoNVeg_10_0 0 ) )
(assert (>= comprasNVeg_10_0 0 ) )
(assert (>= almNVeg_10_0 0 ) )
(assert (>= refinadoNVeg_10_1 0 ) )
(assert (>= comprasNVeg_10_1 0 ) )
(assert (>= almNVeg_10_1 0 ) )
(assert (>= refinadoNVeg_10_2 0 ) )
(assert (>= comprasNVeg_10_2 0 ) )
(assert (>= almNVeg_10_2 0 ) )
(assert (>= refinadoVeg_11_0 0 ) )
(assert (>= comprasVeg_11_0 0 ) )
(assert (>= almVeg_11_0 0 ) )
(assert (>= refinadoVeg_11_1 0 ) )
(assert (>= comprasVeg_11_1 0 ) )
(assert (>= almVeg_11_1 0 ) )
(assert (>= refinadoNVeg_11_0 0 ) )
(assert (>= comprasNVeg_11_0 0 ) )
(assert (>= almNVeg_11_0 0 ) )
(assert (>= refinadoNVeg_11_1 0 ) )
(assert (>= comprasNVeg_11_1 0 ) )
(assert (>= almNVeg_11_1 0 ) )
(assert (>= refinadoNVeg_11_2 0 ) )
(assert (>= comprasNVeg_11_2 0 ) )
(assert (>= almNVeg_11_2 0 ) )
(assert (<= (+ refinadoVeg_0_1 refinadoVeg_0_0 ) 200 ) )
(assert (<= (+ refinadoVeg_1_1 refinadoVeg_1_0 ) 200 ) )
(assert (<= (+ refinadoVeg_2_1 refinadoVeg_2_0 ) 200 ) )
(assert (<= (+ refinadoVeg_3_1 refinadoVeg_3_0 ) 200 ) )
(assert (<= (+ refinadoVeg_4_1 refinadoVeg_4_0 ) 200 ) )
(assert (<= (+ refinadoVeg_5_1 refinadoVeg_5_0 ) 200 ) )
(assert (<= (+ refinadoVeg_6_1 refinadoVeg_6_0 ) 200 ) )
(assert (<= (+ refinadoVeg_7_1 refinadoVeg_7_0 ) 200 ) )
(assert (<= (+ refinadoVeg_8_1 refinadoVeg_8_0 ) 200 ) )
(assert (<= (+ refinadoVeg_9_1 refinadoVeg_9_0 ) 200 ) )
(assert (<= (+ refinadoVeg_10_1 refinadoVeg_10_0 ) 200 ) )
(assert (<= (+ refinadoVeg_11_1 refinadoVeg_11_0 ) 200 ) )
(assert (<= (+ refinadoNVeg_0_2 (+ refinadoNVeg_0_1 refinadoNVeg_0_0 ) ) 250 ) )
(assert (<= (+ refinadoNVeg_1_2 (+ refinadoNVeg_1_1 refinadoNVeg_1_0 ) ) 250 ) )
(assert (<= (+ refinadoNVeg_2_2 (+ refinadoNVeg_2_1 refinadoNVeg_2_0 ) ) 250 ) )
(assert (<= (+ refinadoNVeg_3_2 (+ refinadoNVeg_3_1 refinadoNVeg_3_0 ) ) 250 ) )
(assert (<= (+ refinadoNVeg_4_2 (+ refinadoNVeg_4_1 refinadoNVeg_4_0 ) ) 250 ) )
(assert (<= (+ refinadoNVeg_5_2 (+ refinadoNVeg_5_1 refinadoNVeg_5_0 ) ) 250 ) )
(assert (<= (+ refinadoNVeg_6_2 (+ refinadoNVeg_6_1 refinadoNVeg_6_0 ) ) 250 ) )
(assert (<= (+ refinadoNVeg_7_2 (+ refinadoNVeg_7_1 refinadoNVeg_7_0 ) ) 250 ) )
(assert (<= (+ refinadoNVeg_8_2 (+ refinadoNVeg_8_1 refinadoNVeg_8_0 ) ) 250 ) )
(assert (<= (+ refinadoNVeg_9_2 (+ refinadoNVeg_9_1 refinadoNVeg_9_0 ) ) 250 ) )
(assert (<= (+ refinadoNVeg_10_2 (+ refinadoNVeg_10_1 refinadoNVeg_10_0 ) ) 250 ) )
(assert (<= (+ refinadoNVeg_11_2 (+ refinadoNVeg_11_1 refinadoNVeg_11_0 ) ) 250 ) )
(assert (= almVeg_-1_0 200 ) )
(assert (= almVeg_-1_1 200 ) )
(assert (= almNVeg_-1_0 200 ) )
(assert (= almNVeg_-1_1 200 ) )
(assert (= almNVeg_-1_2 200 ) )
(assert (= almVeg_11_0 200 ) )
(assert (= almVeg_11_1 200 ) )
(assert (= almNVeg_11_0 200 ) )
(assert (= almNVeg_11_1 200 ) )
(assert (= almNVeg_11_2 200 ) )
(assert (= (- (+ almVeg_-1_0 comprasVeg_0_0 ) refinadoVeg_0_0 ) almVeg_0_0 ) )
(assert (= (- (+ almVeg_-1_1 comprasVeg_0_1 ) refinadoVeg_0_1 ) almVeg_0_1 ) )
(assert (= (- (+ almVeg_0_0 comprasVeg_1_0 ) refinadoVeg_1_0 ) almVeg_1_0 ) )
(assert (= (- (+ almVeg_0_1 comprasVeg_1_1 ) refinadoVeg_1_1 ) almVeg_1_1 ) )
(assert (= (- (+ almVeg_1_0 comprasVeg_2_0 ) refinadoVeg_2_0 ) almVeg_2_0 ) )
(assert (= (- (+ almVeg_1_1 comprasVeg_2_1 ) refinadoVeg_2_1 ) almVeg_2_1 ) )
(assert (= (- (+ almVeg_2_0 comprasVeg_3_0 ) refinadoVeg_3_0 ) almVeg_3_0 ) )
(assert (= (- (+ almVeg_2_1 comprasVeg_3_1 ) refinadoVeg_3_1 ) almVeg_3_1 ) )
(assert (= (- (+ almVeg_3_0 comprasVeg_4_0 ) refinadoVeg_4_0 ) almVeg_4_0 ) )
(assert (= (- (+ almVeg_3_1 comprasVeg_4_1 ) refinadoVeg_4_1 ) almVeg_4_1 ) )
(assert (= (- (+ almVeg_4_0 comprasVeg_5_0 ) refinadoVeg_5_0 ) almVeg_5_0 ) )
(assert (= (- (+ almVeg_4_1 comprasVeg_5_1 ) refinadoVeg_5_1 ) almVeg_5_1 ) )
(assert (= (- (+ almVeg_5_0 comprasVeg_6_0 ) refinadoVeg_6_0 ) almVeg_6_0 ) )
(assert (= (- (+ almVeg_5_1 comprasVeg_6_1 ) refinadoVeg_6_1 ) almVeg_6_1 ) )
(assert (= (- (+ almVeg_6_0 comprasVeg_7_0 ) refinadoVeg_7_0 ) almVeg_7_0 ) )
(assert (= (- (+ almVeg_6_1 comprasVeg_7_1 ) refinadoVeg_7_1 ) almVeg_7_1 ) )
(assert (= (- (+ almVeg_7_0 comprasVeg_8_0 ) refinadoVeg_8_0 ) almVeg_8_0 ) )
(assert (= (- (+ almVeg_7_1 comprasVeg_8_1 ) refinadoVeg_8_1 ) almVeg_8_1 ) )
(assert (= (- (+ almVeg_8_0 comprasVeg_9_0 ) refinadoVeg_9_0 ) almVeg_9_0 ) )
(assert (= (- (+ almVeg_8_1 comprasVeg_9_1 ) refinadoVeg_9_1 ) almVeg_9_1 ) )
(assert (= (- (+ almVeg_9_0 comprasVeg_10_0 ) refinadoVeg_10_0 ) almVeg_10_0 ) )
(assert (= (- (+ almVeg_9_1 comprasVeg_10_1 ) refinadoVeg_10_1 ) almVeg_10_1 ) )
(assert (= (- (+ almVeg_10_0 comprasVeg_11_0 ) refinadoVeg_11_0 ) almVeg_11_0 ) )
(assert (= (- (+ almVeg_10_1 comprasVeg_11_1 ) refinadoVeg_11_1 ) almVeg_11_1 ) )
(assert (= (- (+ almNVeg_-1_0 comprasNVeg_0_0 ) refinadoNVeg_0_0 ) almNVeg_0_0 ) )
(assert (= (- (+ almNVeg_-1_1 comprasNVeg_0_1 ) refinadoNVeg_0_1 ) almNVeg_0_1 ) )
(assert (= (- (+ almNVeg_-1_2 comprasNVeg_0_2 ) refinadoNVeg_0_2 ) almNVeg_0_2 ) )
(assert (= (- (+ almNVeg_0_0 comprasNVeg_1_0 ) refinadoNVeg_1_0 ) almNVeg_1_0 ) )
(assert (= (- (+ almNVeg_0_1 comprasNVeg_1_1 ) refinadoNVeg_1_1 ) almNVeg_1_1 ) )
(assert (= (- (+ almNVeg_0_2 comprasNVeg_1_2 ) refinadoNVeg_1_2 ) almNVeg_1_2 ) )
(assert (= (- (+ almNVeg_1_0 comprasNVeg_2_0 ) refinadoNVeg_2_0 ) almNVeg_2_0 ) )
(assert (= (- (+ almNVeg_1_1 comprasNVeg_2_1 ) refinadoNVeg_2_1 ) almNVeg_2_1 ) )
(assert (= (- (+ almNVeg_1_2 comprasNVeg_2_2 ) refinadoNVeg_2_2 ) almNVeg_2_2 ) )
(assert (= (- (+ almNVeg_2_0 comprasNVeg_3_0 ) refinadoNVeg_3_0 ) almNVeg_3_0 ) )
(assert (= (- (+ almNVeg_2_1 comprasNVeg_3_1 ) refinadoNVeg_3_1 ) almNVeg_3_1 ) )
(assert (= (- (+ almNVeg_2_2 comprasNVeg_3_2 ) refinadoNVeg_3_2 ) almNVeg_3_2 ) )
(assert (= (- (+ almNVeg_3_0 comprasNVeg_4_0 ) refinadoNVeg_4_0 ) almNVeg_4_0 ) )
(assert (= (- (+ almNVeg_3_1 comprasNVeg_4_1 ) refinadoNVeg_4_1 ) almNVeg_4_1 ) )
(assert (= (- (+ almNVeg_3_2 comprasNVeg_4_2 ) refinadoNVeg_4_2 ) almNVeg_4_2 ) )
(assert (= (- (+ almNVeg_4_0 comprasNVeg_5_0 ) refinadoNVeg_5_0 ) almNVeg_5_0 ) )
(assert (= (- (+ almNVeg_4_1 comprasNVeg_5_1 ) refinadoNVeg_5_1 ) almNVeg_5_1 ) )
(assert (= (- (+ almNVeg_4_2 comprasNVeg_5_2 ) refinadoNVeg_5_2 ) almNVeg_5_2 ) )
(assert (= (- (+ almNVeg_5_0 comprasNVeg_6_0 ) refinadoNVeg_6_0 ) almNVeg_6_0 ) )
(assert (= (- (+ almNVeg_5_1 comprasNVeg_6_1 ) refinadoNVeg_6_1 ) almNVeg_6_1 ) )
(assert (= (- (+ almNVeg_5_2 comprasNVeg_6_2 ) refinadoNVeg_6_2 ) almNVeg_6_2 ) )
(assert (= (- (+ almNVeg_6_0 comprasNVeg_7_0 ) refinadoNVeg_7_0 ) almNVeg_7_0 ) )
(assert (= (- (+ almNVeg_6_1 comprasNVeg_7_1 ) refinadoNVeg_7_1 ) almNVeg_7_1 ) )
(assert (= (- (+ almNVeg_6_2 comprasNVeg_7_2 ) refinadoNVeg_7_2 ) almNVeg_7_2 ) )
(assert (= (- (+ almNVeg_7_0 comprasNVeg_8_0 ) refinadoNVeg_8_0 ) almNVeg_8_0 ) )
(assert (= (- (+ almNVeg_7_1 comprasNVeg_8_1 ) refinadoNVeg_8_1 ) almNVeg_8_1 ) )
(assert (= (- (+ almNVeg_7_2 comprasNVeg_8_2 ) refinadoNVeg_8_2 ) almNVeg_8_2 ) )
(assert (= (- (+ almNVeg_8_0 comprasNVeg_9_0 ) refinadoNVeg_9_0 ) almNVeg_9_0 ) )
(assert (= (- (+ almNVeg_8_1 comprasNVeg_9_1 ) refinadoNVeg_9_1 ) almNVeg_9_1 ) )
(assert (= (- (+ almNVeg_8_2 comprasNVeg_9_2 ) refinadoNVeg_9_2 ) almNVeg_9_2 ) )
(assert (= (- (+ almNVeg_9_0 comprasNVeg_10_0 ) refinadoNVeg_10_0 ) almNVeg_10_0 ) )
(assert (= (- (+ almNVeg_9_1 comprasNVeg_10_1 ) refinadoNVeg_10_1 ) almNVeg_10_1 ) )
(assert (= (- (+ almNVeg_9_2 comprasNVeg_10_2 ) refinadoNVeg_10_2 ) almNVeg_10_2 ) )
(assert (= (- (+ almNVeg_10_0 comprasNVeg_11_0 ) refinadoNVeg_11_0 ) almNVeg_11_0 ) )
(assert (= (- (+ almNVeg_10_1 comprasNVeg_11_1 ) refinadoNVeg_11_1 ) almNVeg_11_1 ) )
(assert (= (- (+ almNVeg_10_2 comprasNVeg_11_2 ) refinadoNVeg_11_2 ) almNVeg_11_2 ) )
(assert (<= almVeg_0_0 1000 ) )
(assert (<= almVeg_0_1 1000 ) )
(assert (<= almVeg_1_0 1000 ) )
(assert (<= almVeg_1_1 1000 ) )
(assert (<= almVeg_2_0 1000 ) )
(assert (<= almVeg_2_1 1000 ) )
(assert (<= almVeg_3_0 1000 ) )
(assert (<= almVeg_3_1 1000 ) )
(assert (<= almVeg_4_0 1000 ) )
(assert (<= almVeg_4_1 1000 ) )
(assert (<= almVeg_5_0 1000 ) )
(assert (<= almVeg_5_1 1000 ) )
(assert (<= almVeg_6_0 1000 ) )
(assert (<= almVeg_6_1 1000 ) )
(assert (<= almVeg_7_0 1000 ) )
(assert (<= almVeg_7_1 1000 ) )
(assert (<= almVeg_8_0 1000 ) )
(assert (<= almVeg_8_1 1000 ) )
(assert (<= almVeg_9_0 1000 ) )
(assert (<= almVeg_9_1 1000 ) )
(assert (<= almVeg_10_0 1000 ) )
(assert (<= almVeg_10_1 1000 ) )
(assert (<= almVeg_11_0 1000 ) )
(assert (<= almVeg_11_1 1000 ) )
(assert (<= almNVeg_0_0 1000 ) )
(assert (<= almNVeg_0_1 1000 ) )
(assert (<= almNVeg_0_2 1000 ) )
(assert (<= almNVeg_1_0 1000 ) )
(assert (<= almNVeg_1_1 1000 ) )
(assert (<= almNVeg_1_2 1000 ) )
(assert (<= almNVeg_2_0 1000 ) )
(assert (<= almNVeg_2_1 1000 ) )
(assert (<= almNVeg_2_2 1000 ) )
(assert (<= almNVeg_3_0 1000 ) )
(assert (<= almNVeg_3_1 1000 ) )
(assert (<= almNVeg_3_2 1000 ) )
(assert (<= almNVeg_4_0 1000 ) )
(assert (<= almNVeg_4_1 1000 ) )
(assert (<= almNVeg_4_2 1000 ) )
(assert (<= almNVeg_5_0 1000 ) )
(assert (<= almNVeg_5_1 1000 ) )
(assert (<= almNVeg_5_2 1000 ) )
(assert (<= almNVeg_6_0 1000 ) )
(assert (<= almNVeg_6_1 1000 ) )
(assert (<= almNVeg_6_2 1000 ) )
(assert (<= almNVeg_7_0 1000 ) )
(assert (<= almNVeg_7_1 1000 ) )
(assert (<= almNVeg_7_2 1000 ) )
(assert (<= almNVeg_8_0 1000 ) )
(assert (<= almNVeg_8_1 1000 ) )
(assert (<= almNVeg_8_2 1000 ) )
(assert (<= almNVeg_9_0 1000 ) )
(assert (<= almNVeg_9_1 1000 ) )
(assert (<= almNVeg_9_2 1000 ) )
(assert (<= almNVeg_10_0 1000 ) )
(assert (<= almNVeg_10_1 1000 ) )
(assert (<= almNVeg_10_2 1000 ) )
(assert (<= almNVeg_11_0 1000 ) )
(assert (<= almNVeg_11_1 1000 ) )
(assert (<= almNVeg_11_2 1000 ) )
(assert (= (+ (- (+ (* refinadoVeg_0_1 150 ) (* refinadoVeg_0_0 150 ) ) (+ (+ (* comprasVeg_0_1 120 ) (* comprasVeg_0_0 110 ) ) (+ (* almVeg_0_1 4 ) (* almVeg_0_0 4 ) ) ) ) (- (+ (* refinadoNVeg_0_2 150 ) (+ (* refinadoNVeg_0_1 150 ) (* refinadoNVeg_0_0 150 ) ) ) (+ (+ (* comprasNVeg_0_2 115 ) (+ (* comprasNVeg_0_1 110 ) (* comprasNVeg_0_0 130 ) ) ) (+ (* almNVeg_0_2 4 ) (+ (* almNVeg_0_1 4 ) (* almNVeg_0_0 4 ) ) ) ) ) ) ben_0 ) )
(assert (= (+ (- (+ (* refinadoVeg_1_1 150 ) (* refinadoVeg_1_0 150 ) ) (+ (+ (* comprasVeg_1_1 130 ) (* comprasVeg_1_0 130 ) ) (+ (* almVeg_1_1 4 ) (* almVeg_1_0 4 ) ) ) ) (- (+ (* refinadoNVeg_1_2 150 ) (+ (* refinadoNVeg_1_1 150 ) (* refinadoNVeg_1_0 150 ) ) ) (+ (+ (* comprasNVeg_1_2 115 ) (+ (* comprasNVeg_1_1 90 ) (* comprasNVeg_1_0 110 ) ) ) (+ (* almNVeg_1_2 4 ) (+ (* almNVeg_1_1 4 ) (* almNVeg_1_0 4 ) ) ) ) ) ) ben_1 ) )
(assert (= (+ (- (+ (* refinadoVeg_2_1 150 ) (* refinadoVeg_2_0 150 ) ) (+ (+ (* comprasVeg_2_1 140 ) (* comprasVeg_2_0 110 ) ) (+ (* almVeg_2_1 4 ) (* almVeg_2_0 4 ) ) ) ) (- (+ (* refinadoNVeg_2_2 150 ) (+ (* refinadoNVeg_2_1 150 ) (* refinadoNVeg_2_0 150 ) ) ) (+ (+ (* comprasNVeg_2_2 95 ) (+ (* comprasNVeg_2_1 100 ) (* comprasNVeg_2_0 130 ) ) ) (+ (* almNVeg_2_2 4 ) (+ (* almNVeg_2_1 4 ) (* almNVeg_2_0 4 ) ) ) ) ) ) ben_2 ) )
(assert (= (+ (- (+ (* refinadoVeg_3_1 150 ) (* refinadoVeg_3_0 150 ) ) (+ (+ (* comprasVeg_3_1 110 ) (* comprasVeg_3_0 120 ) ) (+ (* almVeg_3_1 4 ) (* almVeg_3_0 4 ) ) ) ) (- (+ (* refinadoNVeg_3_2 150 ) (+ (* refinadoNVeg_3_1 150 ) (* refinadoNVeg_3_0 150 ) ) ) (+ (+ (* comprasNVeg_3_2 125 ) (+ (* comprasNVeg_3_1 120 ) (* comprasNVeg_3_0 120 ) ) ) (+ (* almNVeg_3_2 4 ) (+ (* almNVeg_3_1 4 ) (* almNVeg_3_0 4 ) ) ) ) ) ) ben_3 ) )
(assert (= (+ (- (+ (* refinadoVeg_4_1 150 ) (* refinadoVeg_4_0 150 ) ) (+ (+ (* comprasVeg_4_1 120 ) (* comprasVeg_4_0 100 ) ) (+ (* almVeg_4_1 4 ) (* almVeg_4_0 4 ) ) ) ) (- (+ (* refinadoNVeg_4_2 150 ) (+ (* refinadoNVeg_4_1 150 ) (* refinadoNVeg_4_0 150 ) ) ) (+ (+ (* comprasNVeg_4_2 105 ) (+ (* comprasNVeg_4_1 110 ) (* comprasNVeg_4_0 150 ) ) ) (+ (* almNVeg_4_2 4 ) (+ (* almNVeg_4_1 4 ) (* almNVeg_4_0 4 ) ) ) ) ) ) ben_4 ) )
(assert (= (+ (- (+ (* refinadoVeg_5_1 150 ) (* refinadoVeg_5_0 150 ) ) (+ (+ (* comprasVeg_5_1 100 ) (* comprasVeg_5_0 90 ) ) (+ (* almVeg_5_1 4 ) (* almVeg_5_0 4 ) ) ) ) (- (+ (* refinadoNVeg_5_2 150 ) (+ (* refinadoNVeg_5_1 150 ) (* refinadoNVeg_5_0 150 ) ) ) (+ (+ (* comprasNVeg_5_2 135 ) (+ (* comprasNVeg_5_1 80 ) (* comprasNVeg_5_0 140 ) ) ) (+ (* almNVeg_5_2 4 ) (+ (* almNVeg_5_1 4 ) (* almNVeg_5_0 4 ) ) ) ) ) ) ben_5 ) )
(assert (= (+ (- (+ (* refinadoVeg_6_1 150 ) (* refinadoVeg_6_0 150 ) ) (+ (+ (* comprasVeg_6_1 120 ) (* comprasVeg_6_0 95 ) ) (+ (* almVeg_6_1 4 ) (* almVeg_6_0 4 ) ) ) ) (- (+ (* refinadoNVeg_6_2 150 ) (+ (* refinadoNVeg_6_1 150 ) (* refinadoNVeg_6_0 150 ) ) ) (+ (+ (* comprasNVeg_6_2 130 ) (+ (* comprasNVeg_6_1 85 ) (* comprasNVeg_6_0 130 ) ) ) (+ (* almNVeg_6_2 4 ) (+ (* almNVeg_6_1 4 ) (* almNVeg_6_0 4 ) ) ) ) ) ) ben_6 ) )
(assert (= (+ (- (+ (* refinadoVeg_7_1 150 ) (* refinadoVeg_7_0 150 ) ) (+ (+ (* comprasVeg_7_1 130 ) (* comprasVeg_7_0 110 ) ) (+ (* almVeg_7_1 4 ) (* almVeg_7_0 4 ) ) ) ) (- (+ (* refinadoNVeg_7_2 150 ) (+ (* refinadoNVeg_7_1 150 ) (* refinadoNVeg_7_0 150 ) ) ) (+ (+ (* comprasNVeg_7_2 125 ) (+ (* comprasNVeg_7_1 100 ) (* comprasNVeg_7_0 150 ) ) ) (+ (* almNVeg_7_2 4 ) (+ (* almNVeg_7_1 4 ) (* almNVeg_7_0 4 ) ) ) ) ) ) ben_7 ) )
(assert (= (+ (- (+ (* refinadoVeg_8_1 150 ) (* refinadoVeg_8_0 150 ) ) (+ (+ (* comprasVeg_8_1 110 ) (* comprasVeg_8_0 100 ) ) (+ (* almVeg_8_1 4 ) (* almVeg_8_0 4 ) ) ) ) (- (+ (* refinadoNVeg_8_2 150 ) (+ (* refinadoNVeg_8_1 150 ) (* refinadoNVeg_8_0 150 ) ) ) (+ (+ (* comprasNVeg_8_2 115 ) (+ (* comprasNVeg_8_1 100 ) (* comprasNVeg_8_0 130 ) ) ) (+ (* almNVeg_8_2 4 ) (+ (* almNVeg_8_1 4 ) (* almNVeg_8_0 4 ) ) ) ) ) ) ben_8 ) )
(assert (= (+ (- (+ (* refinadoVeg_9_1 150 ) (* refinadoVeg_9_0 150 ) ) (+ (+ (* comprasVeg_9_1 140 ) (* comprasVeg_9_0 130 ) ) (+ (* almVeg_9_1 4 ) (* almVeg_9_0 4 ) ) ) ) (- (+ (* refinadoNVeg_9_2 150 ) (+ (* refinadoNVeg_9_1 150 ) (* refinadoNVeg_9_0 150 ) ) ) (+ (+ (* comprasNVeg_9_2 135 ) (+ (* comprasNVeg_9_1 100 ) (* comprasNVeg_9_0 140 ) ) ) (+ (* almNVeg_9_2 4 ) (+ (* almNVeg_9_1 4 ) (* almNVeg_9_0 4 ) ) ) ) ) ) ben_9 ) )
(assert (= (+ (- (+ (* refinadoVeg_10_1 150 ) (* refinadoVeg_10_0 150 ) ) (+ (+ (* comprasVeg_10_1 110 ) (* comprasVeg_10_0 100 ) ) (+ (* almVeg_10_1 4 ) (* almVeg_10_0 4 ) ) ) ) (- (+ (* refinadoNVeg_10_2 150 ) (+ (* refinadoNVeg_10_1 150 ) (* refinadoNVeg_10_0 150 ) ) ) (+ (+ (* comprasNVeg_10_2 100 ) (+ (* comprasNVeg_10_1 90 ) (* comprasNVeg_10_0 120 ) ) ) (+ (* almNVeg_10_2 4 ) (+ (* almNVeg_10_1 4 ) (* almNVeg_10_0 4 ) ) ) ) ) ) ben_10 ) )
(assert (= (+ (- (+ (* refinadoVeg_11_1 150 ) (* refinadoVeg_11_0 150 ) ) (+ (+ (* comprasVeg_11_1 100 ) (* comprasVeg_11_0 120 ) ) (+ (* almVeg_11_1 4 ) (* almVeg_11_0 4 ) ) ) ) (- (+ (* refinadoNVeg_11_2 150 ) (+ (* refinadoNVeg_11_1 150 ) (* refinadoNVeg_11_0 150 ) ) ) (+ (+ (* comprasNVeg_11_2 125 ) (+ (* comprasNVeg_11_1 120 ) (* comprasNVeg_11_0 110 ) ) ) (+ (* almNVeg_11_2 4 ) (+ (* almNVeg_11_1 4 ) (* almNVeg_11_0 4 ) ) ) ) ) ) ben_11 ) )
(assert (>= (+ ben_11 (+ ben_10 (+ ben_9 (+ ben_8 (+ ben_7 (+ ben_6 (+ ben_5 (+ ben_4 (+ ben_3 (+ ben_2 (+ ben_1 ben_0 ) ) ) ) ) ) ) ) ) ) ) 275000 ) )
(assert (<= (+ (+ (* refinadoVeg_0_1 6.1 ) (* refinadoVeg_0_0 6.8 ) ) (+ (* refinadoNVeg_0_2 2.5 ) (+ (* refinadoNVeg_0_1 2.2 ) (* refinadoNVeg_0_0 2.0 ) ) ) ) (* 6 (+ refinadoNVeg_0_2 (+ refinadoNVeg_0_1 (+ refinadoNVeg_0_0 (+ refinadoVeg_0_1 refinadoVeg_0_0 ) ) ) ) ) ) )
(assert (<= (+ (+ (* refinadoVeg_1_1 6.1 ) (* refinadoVeg_1_0 6.8 ) ) (+ (* refinadoNVeg_1_2 2.5 ) (+ (* refinadoNVeg_1_1 2.2 ) (* refinadoNVeg_1_0 2.0 ) ) ) ) (* 6 (+ refinadoNVeg_1_2 (+ refinadoNVeg_1_1 (+ refinadoNVeg_1_0 (+ refinadoVeg_1_1 refinadoVeg_1_0 ) ) ) ) ) ) )
(assert (<= (+ (+ (* refinadoVeg_2_1 6.1 ) (* refinadoVeg_2_0 6.8 ) ) (+ (* refinadoNVeg_2_2 2.5 ) (+ (* refinadoNVeg_2_1 2.2 ) (* refinadoNVeg_2_0 2.0 ) ) ) ) (* 6 (+ refinadoNVeg_2_2 (+ refinadoNVeg_2_1 (+ refinadoNVeg_2_0 (+ refinadoVeg_2_1 refinadoVeg_2_0 ) ) ) ) ) ) )
(assert (<= (+ (+ (* refinadoVeg_3_1 6.1 ) (* refinadoVeg_3_0 6.8 ) ) (+ (* refinadoNVeg_3_2 2.5 ) (+ (* refinadoNVeg_3_1 2.2 ) (* refinadoNVeg_3_0 2.0 ) ) ) ) (* 6 (+ refinadoNVeg_3_2 (+ refinadoNVeg_3_1 (+ refinadoNVeg_3_0 (+ refinadoVeg_3_1 refinadoVeg_3_0 ) ) ) ) ) ) )
(assert (<= (+ (+ (* refinadoVeg_4_1 6.1 ) (* refinadoVeg_4_0 6.8 ) ) (+ (* refinadoNVeg_4_2 2.5 ) (+ (* refinadoNVeg_4_1 2.2 ) (* refinadoNVeg_4_0 2.0 ) ) ) ) (* 6 (+ refinadoNVeg_4_2 (+ refinadoNVeg_4_1 (+ refinadoNVeg_4_0 (+ refinadoVeg_4_1 refinadoVeg_4_0 ) ) ) ) ) ) )
(assert (<= (+ (+ (* refinadoVeg_5_1 6.1 ) (* refinadoVeg_5_0 6.8 ) ) (+ (* refinadoNVeg_5_2 2.5 ) (+ (* refinadoNVeg_5_1 2.2 ) (* refinadoNVeg_5_0 2.0 ) ) ) ) (* 6 (+ refinadoNVeg_5_2 (+ refinadoNVeg_5_1 (+ refinadoNVeg_5_0 (+ refinadoVeg_5_1 refinadoVeg_5_0 ) ) ) ) ) ) )
(assert (<= (+ (+ (* refinadoVeg_6_1 6.1 ) (* refinadoVeg_6_0 6.8 ) ) (+ (* refinadoNVeg_6_2 2.5 ) (+ (* refinadoNVeg_6_1 2.2 ) (* refinadoNVeg_6_0 2.0 ) ) ) ) (* 6 (+ refinadoNVeg_6_2 (+ refinadoNVeg_6_1 (+ refinadoNVeg_6_0 (+ refinadoVeg_6_1 refinadoVeg_6_0 ) ) ) ) ) ) )
(assert (<= (+ (+ (* refinadoVeg_7_1 6.1 ) (* refinadoVeg_7_0 6.8 ) ) (+ (* refinadoNVeg_7_2 2.5 ) (+ (* refinadoNVeg_7_1 2.2 ) (* refinadoNVeg_7_0 2.0 ) ) ) ) (* 6 (+ refinadoNVeg_7_2 (+ refinadoNVeg_7_1 (+ refinadoNVeg_7_0 (+ refinadoVeg_7_1 refinadoVeg_7_0 ) ) ) ) ) ) )
(assert (<= (+ (+ (* refinadoVeg_8_1 6.1 ) (* refinadoVeg_8_0 6.8 ) ) (+ (* refinadoNVeg_8_2 2.5 ) (+ (* refinadoNVeg_8_1 2.2 ) (* refinadoNVeg_8_0 2.0 ) ) ) ) (* 6 (+ refinadoNVeg_8_2 (+ refinadoNVeg_8_1 (+ refinadoNVeg_8_0 (+ refinadoVeg_8_1 refinadoVeg_8_0 ) ) ) ) ) ) )
(assert (<= (+ (+ (* refinadoVeg_9_1 6.1 ) (* refinadoVeg_9_0 6.8 ) ) (+ (* refinadoNVeg_9_2 2.5 ) (+ (* refinadoNVeg_9_1 2.2 ) (* refinadoNVeg_9_0 2.0 ) ) ) ) (* 6 (+ refinadoNVeg_9_2 (+ refinadoNVeg_9_1 (+ refinadoNVeg_9_0 (+ refinadoVeg_9_1 refinadoVeg_9_0 ) ) ) ) ) ) )
(assert (<= (+ (+ (* refinadoVeg_10_1 6.1 ) (* refinadoVeg_10_0 6.8 ) ) (+ (* refinadoNVeg_10_2 2.5 ) (+ (* refinadoNVeg_10_1 2.2 ) (* refinadoNVeg_10_0 2.0 ) ) ) ) (* 6 (+ refinadoNVeg_10_2 (+ refinadoNVeg_10_1 (+ refinadoNVeg_10_0 (+ refinadoVeg_10_1 refinadoVeg_10_0 ) ) ) ) ) ) )
(assert (<= (+ (+ (* refinadoVeg_11_1 6.1 ) (* refinadoVeg_11_0 6.8 ) ) (+ (* refinadoNVeg_11_2 2.5 ) (+ (* refinadoNVeg_11_1 2.2 ) (* refinadoNVeg_11_0 2.0 ) ) ) ) (* 6 (+ refinadoNVeg_11_2 (+ refinadoNVeg_11_1 (+ refinadoNVeg_11_0 (+ refinadoVeg_11_1 refinadoVeg_11_0 ) ) ) ) ) ) )
(assert (>= (+ (+ (* refinadoVeg_0_1 6.1 ) (* refinadoVeg_0_0 6.8 ) ) (+ (* refinadoNVeg_0_2 2.5 ) (+ (* refinadoNVeg_0_1 2.2 ) (* refinadoNVeg_0_0 2.0 ) ) ) ) (* 3 (+ refinadoNVeg_0_2 (+ refinadoNVeg_0_1 (+ refinadoNVeg_0_0 (+ refinadoVeg_0_1 refinadoVeg_0_0 ) ) ) ) ) ) )
(assert (>= (+ (+ (* refinadoVeg_1_1 6.1 ) (* refinadoVeg_1_0 6.8 ) ) (+ (* refinadoNVeg_1_2 2.5 ) (+ (* refinadoNVeg_1_1 2.2 ) (* refinadoNVeg_1_0 2.0 ) ) ) ) (* 3 (+ refinadoNVeg_1_2 (+ refinadoNVeg_1_1 (+ refinadoNVeg_1_0 (+ refinadoVeg_1_1 refinadoVeg_1_0 ) ) ) ) ) ) )
(assert (>= (+ (+ (* refinadoVeg_2_1 6.1 ) (* refinadoVeg_2_0 6.8 ) ) (+ (* refinadoNVeg_2_2 2.5 ) (+ (* refinadoNVeg_2_1 2.2 ) (* refinadoNVeg_2_0 2.0 ) ) ) ) (* 3 (+ refinadoNVeg_2_2 (+ refinadoNVeg_2_1 (+ refinadoNVeg_2_0 (+ refinadoVeg_2_1 refinadoVeg_2_0 ) ) ) ) ) ) )
(assert (>= (+ (+ (* refinadoVeg_3_1 6.1 ) (* refinadoVeg_3_0 6.8 ) ) (+ (* refinadoNVeg_3_2 2.5 ) (+ (* refinadoNVeg_3_1 2.2 ) (* refinadoNVeg_3_0 2.0 ) ) ) ) (* 3 (+ refinadoNVeg_3_2 (+ refinadoNVeg_3_1 (+ refinadoNVeg_3_0 (+ refinadoVeg_3_1 refinadoVeg_3_0 ) ) ) ) ) ) )
(assert (>= (+ (+ (* refinadoVeg_4_1 6.1 ) (* refinadoVeg_4_0 6.8 ) ) (+ (* refinadoNVeg_4_2 2.5 ) (+ (* refinadoNVeg_4_1 2.2 ) (* refinadoNVeg_4_0 2.0 ) ) ) ) (* 3 (+ refinadoNVeg_4_2 (+ refinadoNVeg_4_1 (+ refinadoNVeg_4_0 (+ refinadoVeg_4_1 refinadoVeg_4_0 ) ) ) ) ) ) )
(assert (>= (+ (+ (* refinadoVeg_5_1 6.1 ) (* refinadoVeg_5_0 6.8 ) ) (+ (* refinadoNVeg_5_2 2.5 ) (+ (* refinadoNVeg_5_1 2.2 ) (* refinadoNVeg_5_0 2.0 ) ) ) ) (* 3 (+ refinadoNVeg_5_2 (+ refinadoNVeg_5_1 (+ refinadoNVeg_5_0 (+ refinadoVeg_5_1 refinadoVeg_5_0 ) ) ) ) ) ) )
(assert (>= (+ (+ (* refinadoVeg_6_1 6.1 ) (* refinadoVeg_6_0 6.8 ) ) (+ (* refinadoNVeg_6_2 2.5 ) (+ (* refinadoNVeg_6_1 2.2 ) (* refinadoNVeg_6_0 2.0 ) ) ) ) (* 3 (+ refinadoNVeg_6_2 (+ refinadoNVeg_6_1 (+ refinadoNVeg_6_0 (+ refinadoVeg_6_1 refinadoVeg_6_0 ) ) ) ) ) ) )
(assert (>= (+ (+ (* refinadoVeg_7_1 6.1 ) (* refinadoVeg_7_0 6.8 ) ) (+ (* refinadoNVeg_7_2 2.5 ) (+ (* refinadoNVeg_7_1 2.2 ) (* refinadoNVeg_7_0 2.0 ) ) ) ) (* 3 (+ refinadoNVeg_7_2 (+ refinadoNVeg_7_1 (+ refinadoNVeg_7_0 (+ refinadoVeg_7_1 refinadoVeg_7_0 ) ) ) ) ) ) )
(assert (>= (+ (+ (* refinadoVeg_8_1 6.1 ) (* refinadoVeg_8_0 6.8 ) ) (+ (* refinadoNVeg_8_2 2.5 ) (+ (* refinadoNVeg_8_1 2.2 ) (* refinadoNVeg_8_0 2.0 ) ) ) ) (* 3 (+ refinadoNVeg_8_2 (+ refinadoNVeg_8_1 (+ refinadoNVeg_8_0 (+ refinadoVeg_8_1 refinadoVeg_8_0 ) ) ) ) ) ) )
(assert (>= (+ (+ (* refinadoVeg_9_1 6.1 ) (* refinadoVeg_9_0 6.8 ) ) (+ (* refinadoNVeg_9_2 2.5 ) (+ (* refinadoNVeg_9_1 2.2 ) (* refinadoNVeg_9_0 2.0 ) ) ) ) (* 3 (+ refinadoNVeg_9_2 (+ refinadoNVeg_9_1 (+ refinadoNVeg_9_0 (+ refinadoVeg_9_1 refinadoVeg_9_0 ) ) ) ) ) ) )
(assert (>= (+ (+ (* refinadoVeg_10_1 6.1 ) (* refinadoVeg_10_0 6.8 ) ) (+ (* refinadoNVeg_10_2 2.5 ) (+ (* refinadoNVeg_10_1 2.2 ) (* refinadoNVeg_10_0 2.0 ) ) ) ) (* 3 (+ refinadoNVeg_10_2 (+ refinadoNVeg_10_1 (+ refinadoNVeg_10_0 (+ refinadoVeg_10_1 refinadoVeg_10_0 ) ) ) ) ) ) )
(assert (>= (+ (+ (* refinadoVeg_11_1 6.1 ) (* refinadoVeg_11_0 6.8 ) ) (+ (* refinadoNVeg_11_2 2.5 ) (+ (* refinadoNVeg_11_1 2.2 ) (* refinadoNVeg_11_0 2.0 ) ) ) ) (* 3 (+ refinadoNVeg_11_2 (+ refinadoNVeg_11_1 (+ refinadoNVeg_11_0 (+ refinadoVeg_11_1 refinadoVeg_11_0 ) ) ) ) ) ) )
(check-sat)
(get-value (comprasVeg_0_0) )
(get-value (refinadoVeg_0_0) )
(get-value (almVeg_0_0) )
(get-value (comprasVeg_0_1) )
(get-value (refinadoVeg_0_1) )
(get-value (almVeg_0_1) )
(get-value (comprasVeg_1_0) )
(get-value (refinadoVeg_1_0) )
(get-value (almVeg_1_0) )
(get-value (comprasVeg_1_1) )
(get-value (refinadoVeg_1_1) )
(get-value (almVeg_1_1) )
(get-value (comprasVeg_2_0) )
(get-value (refinadoVeg_2_0) )
(get-value (almVeg_2_0) )
(get-value (comprasVeg_2_1) )
(get-value (refinadoVeg_2_1) )
(get-value (almVeg_2_1) )
(get-value (comprasVeg_3_0) )
(get-value (refinadoVeg_3_0) )
(get-value (almVeg_3_0) )
(get-value (comprasVeg_3_1) )
(get-value (refinadoVeg_3_1) )
(get-value (almVeg_3_1) )
(get-value (comprasVeg_4_0) )
(get-value (refinadoVeg_4_0) )
(get-value (almVeg_4_0) )
(get-value (comprasVeg_4_1) )
(get-value (refinadoVeg_4_1) )
(get-value (almVeg_4_1) )
(get-value (comprasVeg_5_0) )
(get-value (refinadoVeg_5_0) )
(get-value (almVeg_5_0) )
(get-value (comprasVeg_5_1) )
(get-value (refinadoVeg_5_1) )
(get-value (almVeg_5_1) )
(get-value (comprasVeg_6_0) )
(get-value (refinadoVeg_6_0) )
(get-value (almVeg_6_0) )
(get-value (comprasVeg_6_1) )
(get-value (refinadoVeg_6_1) )
(get-value (almVeg_6_1) )
(get-value (comprasVeg_7_0) )
(get-value (refinadoVeg_7_0) )
(get-value (almVeg_7_0) )
(get-value (comprasVeg_7_1) )
(get-value (refinadoVeg_7_1) )
(get-value (almVeg_7_1) )
(get-value (comprasVeg_8_0) )
(get-value (refinadoVeg_8_0) )
(get-value (almVeg_8_0) )
(get-value (comprasVeg_8_1) )
(get-value (refinadoVeg_8_1) )
(get-value (almVeg_8_1) )
(get-value (comprasVeg_9_0) )
(get-value (refinadoVeg_9_0) )
(get-value (almVeg_9_0) )
(get-value (comprasVeg_9_1) )
(get-value (refinadoVeg_9_1) )
(get-value (almVeg_9_1) )
(get-value (comprasVeg_10_0) )
(get-value (refinadoVeg_10_0) )
(get-value (almVeg_10_0) )
(get-value (comprasVeg_10_1) )
(get-value (refinadoVeg_10_1) )
(get-value (almVeg_10_1) )
(get-value (comprasVeg_11_0) )
(get-value (refinadoVeg_11_0) )
(get-value (almVeg_11_0) )
(get-value (comprasVeg_11_1) )
(get-value (refinadoVeg_11_1) )
(get-value (almVeg_11_1) )
(get-value (comprasNVeg_0_0) )
(get-value (refinadoNVeg_0_0) )
(get-value (almNVeg_0_0) )
(get-value (comprasNVeg_0_1) )
(get-value (refinadoNVeg_0_1) )
(get-value (almNVeg_0_1) )
(get-value (comprasNVeg_0_2) )
(get-value (refinadoNVeg_0_2) )
(get-value (almNVeg_0_2) )
(get-value (comprasNVeg_1_0) )
(get-value (refinadoNVeg_1_0) )
(get-value (almNVeg_1_0) )
(get-value (comprasNVeg_1_1) )
(get-value (refinadoNVeg_1_1) )
(get-value (almNVeg_1_1) )
(get-value (comprasNVeg_1_2) )
(get-value (refinadoNVeg_1_2) )
(get-value (almNVeg_1_2) )
(get-value (comprasNVeg_2_0) )
(get-value (refinadoNVeg_2_0) )
(get-value (almNVeg_2_0) )
(get-value (comprasNVeg_2_1) )
(get-value (refinadoNVeg_2_1) )
(get-value (almNVeg_2_1) )
(get-value (comprasNVeg_2_2) )
(get-value (refinadoNVeg_2_2) )
(get-value (almNVeg_2_2) )
(get-value (comprasNVeg_3_0) )
(get-value (refinadoNVeg_3_0) )
(get-value (almNVeg_3_0) )
(get-value (comprasNVeg_3_1) )
(get-value (refinadoNVeg_3_1) )
(get-value (almNVeg_3_1) )
(get-value (comprasNVeg_3_2) )
(get-value (refinadoNVeg_3_2) )
(get-value (almNVeg_3_2) )
(get-value (comprasNVeg_4_0) )
(get-value (refinadoNVeg_4_0) )
(get-value (almNVeg_4_0) )
(get-value (comprasNVeg_4_1) )
(get-value (refinadoNVeg_4_1) )
(get-value (almNVeg_4_1) )
(get-value (comprasNVeg_4_2) )
(get-value (refinadoNVeg_4_2) )
(get-value (almNVeg_4_2) )
(get-value (comprasNVeg_5_0) )
(get-value (refinadoNVeg_5_0) )
(get-value (almNVeg_5_0) )
(get-value (comprasNVeg_5_1) )
(get-value (refinadoNVeg_5_1) )
(get-value (almNVeg_5_1) )
(get-value (comprasNVeg_5_2) )
(get-value (refinadoNVeg_5_2) )
(get-value (almNVeg_5_2) )
(get-value (comprasNVeg_6_0) )
(get-value (refinadoNVeg_6_0) )
(get-value (almNVeg_6_0) )
(get-value (comprasNVeg_6_1) )
(get-value (refinadoNVeg_6_1) )
(get-value (almNVeg_6_1) )
(get-value (comprasNVeg_6_2) )
(get-value (refinadoNVeg_6_2) )
(get-value (almNVeg_6_2) )
(get-value (comprasNVeg_7_0) )
(get-value (refinadoNVeg_7_0) )
(get-value (almNVeg_7_0) )
(get-value (comprasNVeg_7_1) )
(get-value (refinadoNVeg_7_1) )
(get-value (almNVeg_7_1) )
(get-value (comprasNVeg_7_2) )
(get-value (refinadoNVeg_7_2) )
(get-value (almNVeg_7_2) )
(get-value (comprasNVeg_8_0) )
(get-value (refinadoNVeg_8_0) )
(get-value (almNVeg_8_0) )
(get-value (comprasNVeg_8_1) )
(get-value (refinadoNVeg_8_1) )
(get-value (almNVeg_8_1) )
(get-value (comprasNVeg_8_2) )
(get-value (refinadoNVeg_8_2) )
(get-value (almNVeg_8_2) )
(get-value (comprasNVeg_9_0) )
(get-value (refinadoNVeg_9_0) )
(get-value (almNVeg_9_0) )
(get-value (comprasNVeg_9_1) )
(get-value (refinadoNVeg_9_1) )
(get-value (almNVeg_9_1) )
(get-value (comprasNVeg_9_2) )
(get-value (refinadoNVeg_9_2) )
(get-value (almNVeg_9_2) )
(get-value (comprasNVeg_10_0) )
(get-value (refinadoNVeg_10_0) )
(get-value (almNVeg_10_0) )
(get-value (comprasNVeg_10_1) )
(get-value (refinadoNVeg_10_1) )
(get-value (almNVeg_10_1) )
(get-value (comprasNVeg_10_2) )
(get-value (refinadoNVeg_10_2) )
(get-value (almNVeg_10_2) )
(get-value (comprasNVeg_11_0) )
(get-value (refinadoNVeg_11_0) )
(get-value (almNVeg_11_0) )
(get-value (comprasNVeg_11_1) )
(get-value (refinadoNVeg_11_1) )
(get-value (almNVeg_11_1) )
(get-value (comprasNVeg_11_2) )
(get-value (refinadoNVeg_11_2) )
(get-value (almNVeg_11_2) )
(get-value (ben_0) )
(get-value (ben_1) )
(get-value (ben_2) )
(get-value (ben_3) )
(get-value (ben_4) )
(get-value (ben_5) )
(get-value (ben_6) )
(get-value (ben_7) )
(get-value (ben_8) )
(get-value (ben_9) )
(get-value (ben_10) )
(get-value (ben_11) )
